
;this file is automatically generated: Tue Feb 23 13:38:02 CST 2021

;declarations generated

(declare-fun oclExcludes ( Int Int) Bool)
(declare-fun Cardinality ( Int) Int)
(declare-fun obj_1b413c76_804b_4947_a633_ff115ffec74f ( Int) Int)
(declare-fun type_ec4f8cdc_09d8_4c6d_9b7a_c3109b8c2f31_Class28 ( Int) Bool)
(declare-fun type_ec4f8cdc_09d8_4c6d_9b7a_c3109b8c2f31_Class29 ( Int) Bool)
(declare-fun type_ec4f8cdc_09d8_4c6d_9b7a_c3109b8c2f31_Class3 ( Int) Bool)
(declare-fun type_ec4f8cdc_09d8_4c6d_9b7a_c3109b8c2f31_Class37 ( Int) Bool)
(declare-fun type_ec4f8cdc_09d8_4c6d_9b7a_c3109b8c2f31_Class2 ( Int) Bool)
(declare-fun type_ec4f8cdc_09d8_4c6d_9b7a_c3109b8c2f31_Class38 ( Int) Bool)
(declare-fun type_ec4f8cdc_09d8_4c6d_9b7a_c3109b8c2f31_Class35 ( Int) Bool)
(declare-fun type_ec4f8cdc_09d8_4c6d_9b7a_c3109b8c2f31_Class5 ( Int) Bool)
(declare-fun type_ec4f8cdc_09d8_4c6d_9b7a_c3109b8c2f31_Class4 ( Int) Bool)
(declare-fun type_ec4f8cdc_09d8_4c6d_9b7a_c3109b8c2f31_Class36 ( Int) Bool)
(declare-fun type_ec4f8cdc_09d8_4c6d_9b7a_c3109b8c2f31_Class33 ( Int) Bool)
(declare-fun type_ec4f8cdc_09d8_4c6d_9b7a_c3109b8c2f31_Class7 ( Int) Bool)
(declare-fun type_ec4f8cdc_09d8_4c6d_9b7a_c3109b8c2f31_Class34 ( Int) Bool)
(declare-fun type_ec4f8cdc_09d8_4c6d_9b7a_c3109b8c2f31_Class6 ( Int) Bool)
(declare-fun type_ec4f8cdc_09d8_4c6d_9b7a_c3109b8c2f31_Class31 ( Int) Bool)
(declare-fun type_ec4f8cdc_09d8_4c6d_9b7a_c3109b8c2f31_Class9 ( Int) Bool)
(declare-fun type_ec4f8cdc_09d8_4c6d_9b7a_c3109b8c2f31_Class32 ( Int) Bool)
(declare-fun type_ec4f8cdc_09d8_4c6d_9b7a_c3109b8c2f31_Class8 ( Int) Bool)
(declare-fun type_ec4f8cdc_09d8_4c6d_9b7a_c3109b8c2f31_Class30 ( Int) Bool)
(declare-fun type_ec4f8cdc_09d8_4c6d_9b7a_c3109b8c2f31_Class1 ( Int) Bool)
(declare-fun type_ec4f8cdc_09d8_4c6d_9b7a_c3109b8c2f31_Class0 ( Int) Bool)
(declare-fun type_ec4f8cdc_09d8_4c6d_9b7a_c3109b8c2f31_Class39 ( Int) Bool)
(declare-fun type_ec4f8cdc_09d8_4c6d_9b7a_c3109b8c2f31_Class44 ( Int) Bool)
(declare-fun type_ec4f8cdc_09d8_4c6d_9b7a_c3109b8c2f31_Class45 ( Int) Bool)
(declare-fun type_ec4f8cdc_09d8_4c6d_9b7a_c3109b8c2f31_Class42 ( Int) Bool)
(declare-fun type_ec4f8cdc_09d8_4c6d_9b7a_c3109b8c2f31_Class43 ( Int) Bool)
(declare-fun type_ec4f8cdc_09d8_4c6d_9b7a_c3109b8c2f31_Class40 ( Int) Bool)
(declare-fun type_ec4f8cdc_09d8_4c6d_9b7a_c3109b8c2f31_Class41 ( Int) Bool)
(declare-fun type_ec4f8cdc_09d8_4c6d_9b7a_c3109b8c2f31_Class15 ( Int) Bool)
(declare-fun type_ec4f8cdc_09d8_4c6d_9b7a_c3109b8c2f31_Class16 ( Int) Bool)
(declare-fun type_ec4f8cdc_09d8_4c6d_9b7a_c3109b8c2f31_Class13 ( Int) Bool)
(declare-fun type_ec4f8cdc_09d8_4c6d_9b7a_c3109b8c2f31_Class14 ( Int) Bool)
(declare-fun type_ec4f8cdc_09d8_4c6d_9b7a_c3109b8c2f31_Class11 ( Int) Bool)
(declare-fun type_ec4f8cdc_09d8_4c6d_9b7a_c3109b8c2f31_Class12 ( Int) Bool)
(declare-fun type_ec4f8cdc_09d8_4c6d_9b7a_c3109b8c2f31_Class10 ( Int) Bool)
(declare-fun type_ec4f8cdc_09d8_4c6d_9b7a_c3109b8c2f31_Class19 ( Int) Bool)
(declare-fun type_ec4f8cdc_09d8_4c6d_9b7a_c3109b8c2f31_Class17 ( Int) Bool)
(declare-fun type_ec4f8cdc_09d8_4c6d_9b7a_c3109b8c2f31_Class18 ( Int) Bool)
(declare-fun type_ec4f8cdc_09d8_4c6d_9b7a_c3109b8c2f31_Class26 ( Int) Bool)
(declare-fun type_ec4f8cdc_09d8_4c6d_9b7a_c3109b8c2f31_Class27 ( Int) Bool)
(declare-fun type_ec4f8cdc_09d8_4c6d_9b7a_c3109b8c2f31_Class24 ( Int) Bool)
(declare-fun type_ec4f8cdc_09d8_4c6d_9b7a_c3109b8c2f31_Class25 ( Int) Bool)
(declare-fun type_ec4f8cdc_09d8_4c6d_9b7a_c3109b8c2f31_Class22 ( Int) Bool)
(declare-fun type_ec4f8cdc_09d8_4c6d_9b7a_c3109b8c2f31_Class23 ( Int) Bool)
(declare-fun type_ec4f8cdc_09d8_4c6d_9b7a_c3109b8c2f31_Class20 ( Int) Bool)
(declare-fun type_ec4f8cdc_09d8_4c6d_9b7a_c3109b8c2f31_Class21 ( Int) Bool)
(declare-fun oclSelect ( Int Bool) Int)
(declare-fun class27_Class27IntAttr0 ( Int) Int)
(declare-fun Enum0 ( Int) Int)
(declare-fun Enum1 ( Int) Int)
(declare-fun Enum2 ( Int) Int)
(declare-fun container_ ( Int) Int)
(declare-fun oclIncludes ( Int Int) Bool)
(declare-fun ObjAt ( Int Int) Int)

;formula(s) generated
(assert (! (exists ((c1 Int)) (and (and ( type_ec4f8cdc_09d8_4c6d_9b7a_c3109b8c2f31_Class27 c1 )  ( type_ec4f8cdc_09d8_4c6d_9b7a_c3109b8c2f31_Class2 c1 ) ) (>= ( class27_Class27IntAttr0 ( obj_1b413c76_804b_4947_a633_ff115ffec74f c1 )  )  1))):named l0))
(assert (! (exists ((o Int)) (and (and (and ( type_ec4f8cdc_09d8_4c6d_9b7a_c3109b8c2f31_Class0 ( obj_1b413c76_804b_4947_a633_ff115ffec74f o )  )  ( type_ec4f8cdc_09d8_4c6d_9b7a_c3109b8c2f31_Class22 ( obj_1b413c76_804b_4947_a633_ff115ffec74f o )  ) ) ( type_ec4f8cdc_09d8_4c6d_9b7a_c3109b8c2f31_Class35 ( obj_1b413c76_804b_4947_a633_ff115ffec74f o )  ) ) ( type_ec4f8cdc_09d8_4c6d_9b7a_c3109b8c2f31_Class2 ( obj_1b413c76_804b_4947_a633_ff115ffec74f o )  ) )):named c0))
(assert (! (exists ((o Int)) ( type_ec4f8cdc_09d8_4c6d_9b7a_c3109b8c2f31_Class1 ( obj_1b413c76_804b_4947_a633_ff115ffec74f o )  ) ):named c1))
(assert (! (exists ((o Int)) (and (and (and (and ( type_ec4f8cdc_09d8_4c6d_9b7a_c3109b8c2f31_Class10 ( obj_1b413c76_804b_4947_a633_ff115ffec74f o )  )  ( type_ec4f8cdc_09d8_4c6d_9b7a_c3109b8c2f31_Class16 ( obj_1b413c76_804b_4947_a633_ff115ffec74f o )  ) ) ( type_ec4f8cdc_09d8_4c6d_9b7a_c3109b8c2f31_Class15 ( obj_1b413c76_804b_4947_a633_ff115ffec74f o )  ) ) ( type_ec4f8cdc_09d8_4c6d_9b7a_c3109b8c2f31_Class41 ( obj_1b413c76_804b_4947_a633_ff115ffec74f o )  ) ) ( type_ec4f8cdc_09d8_4c6d_9b7a_c3109b8c2f31_Class2 ( obj_1b413c76_804b_4947_a633_ff115ffec74f o )  ) )):named c2))
(assert (! (exists ((o Int)) ( type_ec4f8cdc_09d8_4c6d_9b7a_c3109b8c2f31_Class11 ( obj_1b413c76_804b_4947_a633_ff115ffec74f o )  ) ):named c3))
(assert (! (exists ((o Int)) (and (and (and (and ( type_ec4f8cdc_09d8_4c6d_9b7a_c3109b8c2f31_Class12 ( obj_1b413c76_804b_4947_a633_ff115ffec74f o )  )  ( type_ec4f8cdc_09d8_4c6d_9b7a_c3109b8c2f31_Class22 ( obj_1b413c76_804b_4947_a633_ff115ffec74f o )  ) ) ( type_ec4f8cdc_09d8_4c6d_9b7a_c3109b8c2f31_Class35 ( obj_1b413c76_804b_4947_a633_ff115ffec74f o )  ) ) ( type_ec4f8cdc_09d8_4c6d_9b7a_c3109b8c2f31_Class0 ( obj_1b413c76_804b_4947_a633_ff115ffec74f o )  ) ) ( type_ec4f8cdc_09d8_4c6d_9b7a_c3109b8c2f31_Class2 ( obj_1b413c76_804b_4947_a633_ff115ffec74f o )  ) )):named c4))
(assert (! (exists ((o Int)) (and (and (and ( type_ec4f8cdc_09d8_4c6d_9b7a_c3109b8c2f31_Class13 ( obj_1b413c76_804b_4947_a633_ff115ffec74f o )  )  ( type_ec4f8cdc_09d8_4c6d_9b7a_c3109b8c2f31_Class16 ( obj_1b413c76_804b_4947_a633_ff115ffec74f o )  ) ) ( type_ec4f8cdc_09d8_4c6d_9b7a_c3109b8c2f31_Class15 ( obj_1b413c76_804b_4947_a633_ff115ffec74f o )  ) ) ( type_ec4f8cdc_09d8_4c6d_9b7a_c3109b8c2f31_Class2 ( obj_1b413c76_804b_4947_a633_ff115ffec74f o )  ) )):named c5))
(assert (! (exists ((o Int)) (and (and (and (and (and (and (and ( type_ec4f8cdc_09d8_4c6d_9b7a_c3109b8c2f31_Class14 ( obj_1b413c76_804b_4947_a633_ff115ffec74f o )  )  ( type_ec4f8cdc_09d8_4c6d_9b7a_c3109b8c2f31_Class33 ( obj_1b413c76_804b_4947_a633_ff115ffec74f o )  ) ) ( type_ec4f8cdc_09d8_4c6d_9b7a_c3109b8c2f31_Class13 ( obj_1b413c76_804b_4947_a633_ff115ffec74f o )  ) ) ( type_ec4f8cdc_09d8_4c6d_9b7a_c3109b8c2f31_Class16 ( obj_1b413c76_804b_4947_a633_ff115ffec74f o )  ) ) ( type_ec4f8cdc_09d8_4c6d_9b7a_c3109b8c2f31_Class15 ( obj_1b413c76_804b_4947_a633_ff115ffec74f o )  ) ) ( type_ec4f8cdc_09d8_4c6d_9b7a_c3109b8c2f31_Class4 ( obj_1b413c76_804b_4947_a633_ff115ffec74f o )  ) ) ( type_ec4f8cdc_09d8_4c6d_9b7a_c3109b8c2f31_Class41 ( obj_1b413c76_804b_4947_a633_ff115ffec74f o )  ) ) ( type_ec4f8cdc_09d8_4c6d_9b7a_c3109b8c2f31_Class2 ( obj_1b413c76_804b_4947_a633_ff115ffec74f o )  ) )):named c6))
(assert (! (exists ((o Int)) (and ( type_ec4f8cdc_09d8_4c6d_9b7a_c3109b8c2f31_Class15 ( obj_1b413c76_804b_4947_a633_ff115ffec74f o )  )  ( type_ec4f8cdc_09d8_4c6d_9b7a_c3109b8c2f31_Class2 ( obj_1b413c76_804b_4947_a633_ff115ffec74f o )  ) )):named c7))
(assert (! (exists ((o Int)) (and (and ( type_ec4f8cdc_09d8_4c6d_9b7a_c3109b8c2f31_Class16 ( obj_1b413c76_804b_4947_a633_ff115ffec74f o )  )  ( type_ec4f8cdc_09d8_4c6d_9b7a_c3109b8c2f31_Class15 ( obj_1b413c76_804b_4947_a633_ff115ffec74f o )  ) ) ( type_ec4f8cdc_09d8_4c6d_9b7a_c3109b8c2f31_Class2 ( obj_1b413c76_804b_4947_a633_ff115ffec74f o )  ) )):named c8))
(assert (! (exists ((o Int)) (and (and (and (and ( type_ec4f8cdc_09d8_4c6d_9b7a_c3109b8c2f31_Class17 ( obj_1b413c76_804b_4947_a633_ff115ffec74f o )  )  ( type_ec4f8cdc_09d8_4c6d_9b7a_c3109b8c2f31_Class24 ( obj_1b413c76_804b_4947_a633_ff115ffec74f o )  ) ) ( type_ec4f8cdc_09d8_4c6d_9b7a_c3109b8c2f31_Class26 ( obj_1b413c76_804b_4947_a633_ff115ffec74f o )  ) ) ( type_ec4f8cdc_09d8_4c6d_9b7a_c3109b8c2f31_Class32 ( obj_1b413c76_804b_4947_a633_ff115ffec74f o )  ) ) ( type_ec4f8cdc_09d8_4c6d_9b7a_c3109b8c2f31_Class2 ( obj_1b413c76_804b_4947_a633_ff115ffec74f o )  ) )):named c9))
(assert (! (exists ((o Int)) ( type_ec4f8cdc_09d8_4c6d_9b7a_c3109b8c2f31_Class18 ( obj_1b413c76_804b_4947_a633_ff115ffec74f o )  ) ):named c10))
(assert (! (exists ((o Int)) ( type_ec4f8cdc_09d8_4c6d_9b7a_c3109b8c2f31_Class19 ( obj_1b413c76_804b_4947_a633_ff115ffec74f o )  ) ):named c11))
(assert (! (exists ((o Int)) ( type_ec4f8cdc_09d8_4c6d_9b7a_c3109b8c2f31_Class2 ( obj_1b413c76_804b_4947_a633_ff115ffec74f o )  ) ):named c12))
(assert (! (exists ((o Int)) (and (and ( type_ec4f8cdc_09d8_4c6d_9b7a_c3109b8c2f31_Class20 ( obj_1b413c76_804b_4947_a633_ff115ffec74f o )  )  ( type_ec4f8cdc_09d8_4c6d_9b7a_c3109b8c2f31_Class21 ( obj_1b413c76_804b_4947_a633_ff115ffec74f o )  ) ) ( type_ec4f8cdc_09d8_4c6d_9b7a_c3109b8c2f31_Class2 ( obj_1b413c76_804b_4947_a633_ff115ffec74f o )  ) )):named c13))
(assert (! (exists ((o Int)) (and ( type_ec4f8cdc_09d8_4c6d_9b7a_c3109b8c2f31_Class21 ( obj_1b413c76_804b_4947_a633_ff115ffec74f o )  )  ( type_ec4f8cdc_09d8_4c6d_9b7a_c3109b8c2f31_Class2 ( obj_1b413c76_804b_4947_a633_ff115ffec74f o )  ) )):named c14))
(assert (! (exists ((o Int)) (and (and ( type_ec4f8cdc_09d8_4c6d_9b7a_c3109b8c2f31_Class22 ( obj_1b413c76_804b_4947_a633_ff115ffec74f o )  )  ( type_ec4f8cdc_09d8_4c6d_9b7a_c3109b8c2f31_Class35 ( obj_1b413c76_804b_4947_a633_ff115ffec74f o )  ) ) ( type_ec4f8cdc_09d8_4c6d_9b7a_c3109b8c2f31_Class2 ( obj_1b413c76_804b_4947_a633_ff115ffec74f o )  ) )):named c15))
(assert (! (exists ((o Int)) (and (and (and (and (and (and ( type_ec4f8cdc_09d8_4c6d_9b7a_c3109b8c2f31_Class23 ( obj_1b413c76_804b_4947_a633_ff115ffec74f o )  )  ( type_ec4f8cdc_09d8_4c6d_9b7a_c3109b8c2f31_Class12 ( obj_1b413c76_804b_4947_a633_ff115ffec74f o )  ) ) ( type_ec4f8cdc_09d8_4c6d_9b7a_c3109b8c2f31_Class22 ( obj_1b413c76_804b_4947_a633_ff115ffec74f o )  ) ) ( type_ec4f8cdc_09d8_4c6d_9b7a_c3109b8c2f31_Class25 ( obj_1b413c76_804b_4947_a633_ff115ffec74f o )  ) ) ( type_ec4f8cdc_09d8_4c6d_9b7a_c3109b8c2f31_Class35 ( obj_1b413c76_804b_4947_a633_ff115ffec74f o )  ) ) ( type_ec4f8cdc_09d8_4c6d_9b7a_c3109b8c2f31_Class0 ( obj_1b413c76_804b_4947_a633_ff115ffec74f o )  ) ) ( type_ec4f8cdc_09d8_4c6d_9b7a_c3109b8c2f31_Class2 ( obj_1b413c76_804b_4947_a633_ff115ffec74f o )  ) )):named c16))
(assert (! (exists ((o Int)) (and (and (and ( type_ec4f8cdc_09d8_4c6d_9b7a_c3109b8c2f31_Class24 ( obj_1b413c76_804b_4947_a633_ff115ffec74f o )  )  ( type_ec4f8cdc_09d8_4c6d_9b7a_c3109b8c2f31_Class26 ( obj_1b413c76_804b_4947_a633_ff115ffec74f o )  ) ) ( type_ec4f8cdc_09d8_4c6d_9b7a_c3109b8c2f31_Class32 ( obj_1b413c76_804b_4947_a633_ff115ffec74f o )  ) ) ( type_ec4f8cdc_09d8_4c6d_9b7a_c3109b8c2f31_Class2 ( obj_1b413c76_804b_4947_a633_ff115ffec74f o )  ) )):named c17))
(assert (! (exists ((o Int)) (and (and (and (and (and ( type_ec4f8cdc_09d8_4c6d_9b7a_c3109b8c2f31_Class25 ( obj_1b413c76_804b_4947_a633_ff115ffec74f o )  )  ( type_ec4f8cdc_09d8_4c6d_9b7a_c3109b8c2f31_Class12 ( obj_1b413c76_804b_4947_a633_ff115ffec74f o )  ) ) ( type_ec4f8cdc_09d8_4c6d_9b7a_c3109b8c2f31_Class22 ( obj_1b413c76_804b_4947_a633_ff115ffec74f o )  ) ) ( type_ec4f8cdc_09d8_4c6d_9b7a_c3109b8c2f31_Class35 ( obj_1b413c76_804b_4947_a633_ff115ffec74f o )  ) ) ( type_ec4f8cdc_09d8_4c6d_9b7a_c3109b8c2f31_Class0 ( obj_1b413c76_804b_4947_a633_ff115ffec74f o )  ) ) ( type_ec4f8cdc_09d8_4c6d_9b7a_c3109b8c2f31_Class2 ( obj_1b413c76_804b_4947_a633_ff115ffec74f o )  ) )):named c18))
(assert (! (exists ((o Int)) (and (and ( type_ec4f8cdc_09d8_4c6d_9b7a_c3109b8c2f31_Class26 ( obj_1b413c76_804b_4947_a633_ff115ffec74f o )  )  ( type_ec4f8cdc_09d8_4c6d_9b7a_c3109b8c2f31_Class32 ( obj_1b413c76_804b_4947_a633_ff115ffec74f o )  ) ) ( type_ec4f8cdc_09d8_4c6d_9b7a_c3109b8c2f31_Class2 ( obj_1b413c76_804b_4947_a633_ff115ffec74f o )  ) )):named c19))
(assert (! (exists ((o Int)) (and ( type_ec4f8cdc_09d8_4c6d_9b7a_c3109b8c2f31_Class27 ( obj_1b413c76_804b_4947_a633_ff115ffec74f o )  )  ( type_ec4f8cdc_09d8_4c6d_9b7a_c3109b8c2f31_Class2 ( obj_1b413c76_804b_4947_a633_ff115ffec74f o )  ) )):named c20))
(assert (! (exists ((o Int)) ( type_ec4f8cdc_09d8_4c6d_9b7a_c3109b8c2f31_Class28 ( obj_1b413c76_804b_4947_a633_ff115ffec74f o )  ) ):named c21))
(assert (! (exists ((o Int)) ( type_ec4f8cdc_09d8_4c6d_9b7a_c3109b8c2f31_Class29 ( obj_1b413c76_804b_4947_a633_ff115ffec74f o )  ) ):named c22))
(assert (! (exists ((o Int)) ( type_ec4f8cdc_09d8_4c6d_9b7a_c3109b8c2f31_Class3 ( obj_1b413c76_804b_4947_a633_ff115ffec74f o )  ) ):named c23))
(assert (! (exists ((o Int)) (and ( type_ec4f8cdc_09d8_4c6d_9b7a_c3109b8c2f31_Class30 ( obj_1b413c76_804b_4947_a633_ff115ffec74f o )  )  ( type_ec4f8cdc_09d8_4c6d_9b7a_c3109b8c2f31_Class2 ( obj_1b413c76_804b_4947_a633_ff115ffec74f o )  ) )):named c24))
(assert (! (exists ((o Int)) (and (and (and (and ( type_ec4f8cdc_09d8_4c6d_9b7a_c3109b8c2f31_Class31 ( obj_1b413c76_804b_4947_a633_ff115ffec74f o )  )  ( type_ec4f8cdc_09d8_4c6d_9b7a_c3109b8c2f31_Class16 ( obj_1b413c76_804b_4947_a633_ff115ffec74f o )  ) ) ( type_ec4f8cdc_09d8_4c6d_9b7a_c3109b8c2f31_Class15 ( obj_1b413c76_804b_4947_a633_ff115ffec74f o )  ) ) ( type_ec4f8cdc_09d8_4c6d_9b7a_c3109b8c2f31_Class41 ( obj_1b413c76_804b_4947_a633_ff115ffec74f o )  ) ) ( type_ec4f8cdc_09d8_4c6d_9b7a_c3109b8c2f31_Class2 ( obj_1b413c76_804b_4947_a633_ff115ffec74f o )  ) )):named c25))
(assert (! (exists ((o Int)) (and ( type_ec4f8cdc_09d8_4c6d_9b7a_c3109b8c2f31_Class32 ( obj_1b413c76_804b_4947_a633_ff115ffec74f o )  )  ( type_ec4f8cdc_09d8_4c6d_9b7a_c3109b8c2f31_Class2 ( obj_1b413c76_804b_4947_a633_ff115ffec74f o )  ) )):named c26))
(assert (! (exists ((o Int)) (and (and (and (and (and ( type_ec4f8cdc_09d8_4c6d_9b7a_c3109b8c2f31_Class33 ( obj_1b413c76_804b_4947_a633_ff115ffec74f o )  )  ( type_ec4f8cdc_09d8_4c6d_9b7a_c3109b8c2f31_Class13 ( obj_1b413c76_804b_4947_a633_ff115ffec74f o )  ) ) ( type_ec4f8cdc_09d8_4c6d_9b7a_c3109b8c2f31_Class16 ( obj_1b413c76_804b_4947_a633_ff115ffec74f o )  ) ) ( type_ec4f8cdc_09d8_4c6d_9b7a_c3109b8c2f31_Class15 ( obj_1b413c76_804b_4947_a633_ff115ffec74f o )  ) ) ( type_ec4f8cdc_09d8_4c6d_9b7a_c3109b8c2f31_Class41 ( obj_1b413c76_804b_4947_a633_ff115ffec74f o )  ) ) ( type_ec4f8cdc_09d8_4c6d_9b7a_c3109b8c2f31_Class2 ( obj_1b413c76_804b_4947_a633_ff115ffec74f o )  ) )):named c27))
(assert (! (exists ((o Int)) ( type_ec4f8cdc_09d8_4c6d_9b7a_c3109b8c2f31_Class34 ( obj_1b413c76_804b_4947_a633_ff115ffec74f o )  ) ):named c28))
(assert (! (exists ((o Int)) (and ( type_ec4f8cdc_09d8_4c6d_9b7a_c3109b8c2f31_Class35 ( obj_1b413c76_804b_4947_a633_ff115ffec74f o )  )  ( type_ec4f8cdc_09d8_4c6d_9b7a_c3109b8c2f31_Class2 ( obj_1b413c76_804b_4947_a633_ff115ffec74f o )  ) )):named c29))
(assert (! (exists ((o Int)) ( type_ec4f8cdc_09d8_4c6d_9b7a_c3109b8c2f31_Class36 ( obj_1b413c76_804b_4947_a633_ff115ffec74f o )  ) ):named c30))
(assert (! (exists ((o Int)) ( type_ec4f8cdc_09d8_4c6d_9b7a_c3109b8c2f31_Class37 ( obj_1b413c76_804b_4947_a633_ff115ffec74f o )  ) ):named c31))
(assert (! (exists ((o Int)) (and ( type_ec4f8cdc_09d8_4c6d_9b7a_c3109b8c2f31_Class38 ( obj_1b413c76_804b_4947_a633_ff115ffec74f o )  )  ( type_ec4f8cdc_09d8_4c6d_9b7a_c3109b8c2f31_Class2 ( obj_1b413c76_804b_4947_a633_ff115ffec74f o )  ) )):named c32))
(assert (! (exists ((o Int)) ( type_ec4f8cdc_09d8_4c6d_9b7a_c3109b8c2f31_Class39 ( obj_1b413c76_804b_4947_a633_ff115ffec74f o )  ) ):named c33))
(assert (! (exists ((o Int)) (and (and (and (and (and (and ( type_ec4f8cdc_09d8_4c6d_9b7a_c3109b8c2f31_Class4 ( obj_1b413c76_804b_4947_a633_ff115ffec74f o )  )  ( type_ec4f8cdc_09d8_4c6d_9b7a_c3109b8c2f31_Class33 ( obj_1b413c76_804b_4947_a633_ff115ffec74f o )  ) ) ( type_ec4f8cdc_09d8_4c6d_9b7a_c3109b8c2f31_Class13 ( obj_1b413c76_804b_4947_a633_ff115ffec74f o )  ) ) ( type_ec4f8cdc_09d8_4c6d_9b7a_c3109b8c2f31_Class16 ( obj_1b413c76_804b_4947_a633_ff115ffec74f o )  ) ) ( type_ec4f8cdc_09d8_4c6d_9b7a_c3109b8c2f31_Class15 ( obj_1b413c76_804b_4947_a633_ff115ffec74f o )  ) ) ( type_ec4f8cdc_09d8_4c6d_9b7a_c3109b8c2f31_Class41 ( obj_1b413c76_804b_4947_a633_ff115ffec74f o )  ) ) ( type_ec4f8cdc_09d8_4c6d_9b7a_c3109b8c2f31_Class2 ( obj_1b413c76_804b_4947_a633_ff115ffec74f o )  ) )):named c34))
(assert (! (exists ((o Int)) (and (and (and ( type_ec4f8cdc_09d8_4c6d_9b7a_c3109b8c2f31_Class40 ( obj_1b413c76_804b_4947_a633_ff115ffec74f o )  )  ( type_ec4f8cdc_09d8_4c6d_9b7a_c3109b8c2f31_Class21 ( obj_1b413c76_804b_4947_a633_ff115ffec74f o )  ) ) ( type_ec4f8cdc_09d8_4c6d_9b7a_c3109b8c2f31_Class2 ( obj_1b413c76_804b_4947_a633_ff115ffec74f o )  ) ) ( type_ec4f8cdc_09d8_4c6d_9b7a_c3109b8c2f31_Class20 ( obj_1b413c76_804b_4947_a633_ff115ffec74f o )  ) )):named c35))
(assert (! (exists ((o Int)) (and (and (and ( type_ec4f8cdc_09d8_4c6d_9b7a_c3109b8c2f31_Class41 ( obj_1b413c76_804b_4947_a633_ff115ffec74f o )  )  ( type_ec4f8cdc_09d8_4c6d_9b7a_c3109b8c2f31_Class16 ( obj_1b413c76_804b_4947_a633_ff115ffec74f o )  ) ) ( type_ec4f8cdc_09d8_4c6d_9b7a_c3109b8c2f31_Class15 ( obj_1b413c76_804b_4947_a633_ff115ffec74f o )  ) ) ( type_ec4f8cdc_09d8_4c6d_9b7a_c3109b8c2f31_Class2 ( obj_1b413c76_804b_4947_a633_ff115ffec74f o )  ) )):named c36))
(assert (! (exists ((o Int)) (and (and (and ( type_ec4f8cdc_09d8_4c6d_9b7a_c3109b8c2f31_Class42 ( obj_1b413c76_804b_4947_a633_ff115ffec74f o )  )  ( type_ec4f8cdc_09d8_4c6d_9b7a_c3109b8c2f31_Class22 ( obj_1b413c76_804b_4947_a633_ff115ffec74f o )  ) ) ( type_ec4f8cdc_09d8_4c6d_9b7a_c3109b8c2f31_Class35 ( obj_1b413c76_804b_4947_a633_ff115ffec74f o )  ) ) ( type_ec4f8cdc_09d8_4c6d_9b7a_c3109b8c2f31_Class2 ( obj_1b413c76_804b_4947_a633_ff115ffec74f o )  ) )):named c37))
(assert (! (exists ((o Int)) ( type_ec4f8cdc_09d8_4c6d_9b7a_c3109b8c2f31_Class43 ( obj_1b413c76_804b_4947_a633_ff115ffec74f o )  ) ):named c38))
(assert (! (exists ((o Int)) (and (and (and (and (and (and ( type_ec4f8cdc_09d8_4c6d_9b7a_c3109b8c2f31_Class44 ( obj_1b413c76_804b_4947_a633_ff115ffec74f o )  )  ( type_ec4f8cdc_09d8_4c6d_9b7a_c3109b8c2f31_Class33 ( obj_1b413c76_804b_4947_a633_ff115ffec74f o )  ) ) ( type_ec4f8cdc_09d8_4c6d_9b7a_c3109b8c2f31_Class13 ( obj_1b413c76_804b_4947_a633_ff115ffec74f o )  ) ) ( type_ec4f8cdc_09d8_4c6d_9b7a_c3109b8c2f31_Class16 ( obj_1b413c76_804b_4947_a633_ff115ffec74f o )  ) ) ( type_ec4f8cdc_09d8_4c6d_9b7a_c3109b8c2f31_Class15 ( obj_1b413c76_804b_4947_a633_ff115ffec74f o )  ) ) ( type_ec4f8cdc_09d8_4c6d_9b7a_c3109b8c2f31_Class41 ( obj_1b413c76_804b_4947_a633_ff115ffec74f o )  ) ) ( type_ec4f8cdc_09d8_4c6d_9b7a_c3109b8c2f31_Class2 ( obj_1b413c76_804b_4947_a633_ff115ffec74f o )  ) )):named c39))
(assert (! (exists ((o Int)) ( type_ec4f8cdc_09d8_4c6d_9b7a_c3109b8c2f31_Class45 ( obj_1b413c76_804b_4947_a633_ff115ffec74f o )  ) ):named c40))
(assert (! (exists ((o Int)) ( type_ec4f8cdc_09d8_4c6d_9b7a_c3109b8c2f31_Class5 ( obj_1b413c76_804b_4947_a633_ff115ffec74f o )  ) ):named c41))
(assert (! (exists ((o Int)) (and (and (and (and ( type_ec4f8cdc_09d8_4c6d_9b7a_c3109b8c2f31_Class6 ( obj_1b413c76_804b_4947_a633_ff115ffec74f o )  )  ( type_ec4f8cdc_09d8_4c6d_9b7a_c3109b8c2f31_Class22 ( obj_1b413c76_804b_4947_a633_ff115ffec74f o )  ) ) ( type_ec4f8cdc_09d8_4c6d_9b7a_c3109b8c2f31_Class35 ( obj_1b413c76_804b_4947_a633_ff115ffec74f o )  ) ) ( type_ec4f8cdc_09d8_4c6d_9b7a_c3109b8c2f31_Class2 ( obj_1b413c76_804b_4947_a633_ff115ffec74f o )  ) ) ( type_ec4f8cdc_09d8_4c6d_9b7a_c3109b8c2f31_Class42 ( obj_1b413c76_804b_4947_a633_ff115ffec74f o )  ) )):named c42))
(assert (! (exists ((o Int)) ( type_ec4f8cdc_09d8_4c6d_9b7a_c3109b8c2f31_Class7 ( obj_1b413c76_804b_4947_a633_ff115ffec74f o )  ) ):named c43))
(assert (! (exists ((o Int)) (and (and (and (and (and ( type_ec4f8cdc_09d8_4c6d_9b7a_c3109b8c2f31_Class8 ( obj_1b413c76_804b_4947_a633_ff115ffec74f o )  )  ( type_ec4f8cdc_09d8_4c6d_9b7a_c3109b8c2f31_Class16 ( obj_1b413c76_804b_4947_a633_ff115ffec74f o )  ) ) ( type_ec4f8cdc_09d8_4c6d_9b7a_c3109b8c2f31_Class15 ( obj_1b413c76_804b_4947_a633_ff115ffec74f o )  ) ) ( type_ec4f8cdc_09d8_4c6d_9b7a_c3109b8c2f31_Class41 ( obj_1b413c76_804b_4947_a633_ff115ffec74f o )  ) ) ( type_ec4f8cdc_09d8_4c6d_9b7a_c3109b8c2f31_Class10 ( obj_1b413c76_804b_4947_a633_ff115ffec74f o )  ) ) ( type_ec4f8cdc_09d8_4c6d_9b7a_c3109b8c2f31_Class2 ( obj_1b413c76_804b_4947_a633_ff115ffec74f o )  ) )):named c44))
(assert (! (exists ((o Int)) (and (and (and (and (and (and (and ( type_ec4f8cdc_09d8_4c6d_9b7a_c3109b8c2f31_Class9 ( obj_1b413c76_804b_4947_a633_ff115ffec74f o )  )  ( type_ec4f8cdc_09d8_4c6d_9b7a_c3109b8c2f31_Class22 ( obj_1b413c76_804b_4947_a633_ff115ffec74f o )  ) ) ( type_ec4f8cdc_09d8_4c6d_9b7a_c3109b8c2f31_Class35 ( obj_1b413c76_804b_4947_a633_ff115ffec74f o )  ) ) ( type_ec4f8cdc_09d8_4c6d_9b7a_c3109b8c2f31_Class16 ( obj_1b413c76_804b_4947_a633_ff115ffec74f o )  ) ) ( type_ec4f8cdc_09d8_4c6d_9b7a_c3109b8c2f31_Class15 ( obj_1b413c76_804b_4947_a633_ff115ffec74f o )  ) ) ( type_ec4f8cdc_09d8_4c6d_9b7a_c3109b8c2f31_Class0 ( obj_1b413c76_804b_4947_a633_ff115ffec74f o )  ) ) ( type_ec4f8cdc_09d8_4c6d_9b7a_c3109b8c2f31_Class41 ( obj_1b413c76_804b_4947_a633_ff115ffec74f o )  ) ) ( type_ec4f8cdc_09d8_4c6d_9b7a_c3109b8c2f31_Class2 ( obj_1b413c76_804b_4947_a633_ff115ffec74f o )  ) )):named c45))

 ;end of formula 